50 1 3
755 368 173 530 793 849 937 738 947 576 233 328 560 268 694 803 692 888 430 299 526 397 739 460 820 161 842 480 609 163 213 364 530 386 893 323 235 829 60 181 404 293 509 963 561 202 766 253 89 196 
551 615 592 290 75 412 451 916 891 59 78 104 422 608 489 314 930 723 142 990 904 546 283 412 509 843 613 275 95 702 470 645 316 62 935 390 473 385 306 364 443 384 467 865 991 955 179 921 678 321 
911 581 867 193 992 375 35 605 649 129 307 118 774 623 180 708 13 652 93 318 15 535 701 481 400 692 436 579 612 113 899 523 693 765 715 685 139 749 290 788 878 597 906 652 219 85 360 232 736 452 
5490 7510 9870 2500 2320 3860 9420 6670 9640 5530 7800 8630 760 4730 6270 7900 1580 7660 5390 4470 5530 4170 440 4590 680 2620 5430 4270 4930 2790 8780 420 290 8640 2920 2600 2500 2330 9270 2140 7860 7060 760 8610 1790 7030 6500 3360 4680 1890 
121440
